# Objective value = 1.1346908686715178e+03
x[S1,D1,P1,1] 0
x[S1,D1,P1,2] 0
x[S1,D1,P1,3] 0
x[S1,D1,P1,4] 0
x[S1,D1,P1,5] 0
x[S1,D1,P1,6] 0
x[S1,D1,P1,7] 0
x[S1,D1,P1,8] 0
x[S1,D1,P1,9] 0
x[S1,D1,P1,10] 0
x[S1,D1,P1,11] 0
x[S1,D1,P1,12] 0
x[S1,D1,P1,13] 0
x[S1,D1,P1,14] 0
x[S1,D1,P1,15] 0
x[S1,D1,P1,16] 0
x[S1,D1,P1,17] 0
x[S1,D1,P1,18] 0
x[S1,D1,P1,19] 0
x[S1,D2,P1,1] 1.4694263865148644e+01
x[S1,D2,P1,2] 1.4694263865148645e+01
x[S1,D2,P1,3] 0
x[S1,D2,P1,4] 0
x[S1,D2,P1,5] 0
x[S1,D2,P1,6] 0
x[S1,D2,P1,7] 0
x[S1,D2,P1,8] 14.02
x[S1,D2,P1,9] 14.02
x[S1,D2,P1,10] 0
x[S1,D2,P1,11] 0
x[S1,D2,P1,12] 0
x[S1,D2,P1,13] 0
x[S1,D2,P1,14] 0
x[S1,D2,P1,15] 0
x[S1,D2,P1,16] 0
x[S1,D2,P1,17] 0
x[S1,D2,P1,18] 0
x[S1,D2,P1,19] 0
x[S1,C1,P1,1] 0
x[S1,C1,P1,2] 0
x[S1,C1,P1,3] 0
x[S1,C1,P1,4] 0
x[S1,C1,P1,5] 0
x[S1,C1,P1,6] 0
x[S1,C1,P1,7] 0
x[S1,C1,P1,8] 0
x[S1,C1,P1,9] 0
x[S1,C1,P1,10] 0
x[S1,C1,P1,11] 0
x[S1,C1,P1,12] 0
x[S1,C1,P1,13] 0
x[S1,C1,P1,14] 0
x[S1,C1,P1,15] 0
x[S1,C1,P1,16] 0
x[S1,C1,P1,17] 0
x[S1,C1,P1,18] 0
x[S1,C1,P1,19] 0
x[S1,C2,P1,1] 0
x[S1,C2,P1,2] 0
x[S1,C2,P1,3] 0
x[S1,C2,P1,4] 0
x[S1,C2,P1,5] 0
x[S1,C2,P1,6] 0
x[S1,C2,P1,7] 0
x[S1,C2,P1,8] 0
x[S1,C2,P1,9] 0
x[S1,C2,P1,10] 0
x[S1,C2,P1,11] 0
x[S1,C2,P1,12] 0
x[S1,C2,P1,13] 0
x[S1,C2,P1,14] 0
x[S1,C2,P1,15] 0
x[S1,C2,P1,16] 0
x[S1,C2,P1,17] 0
x[S1,C2,P1,18] 0
x[S1,C2,P1,19] 0
x[S1,C3,P1,1] 0
x[S1,C3,P1,2] 0
x[S1,C3,P1,3] 0
x[S1,C3,P1,4] 0
x[S1,C3,P1,5] 0
x[S1,C3,P1,6] 0
x[S1,C3,P1,7] 0
x[S1,C3,P1,8] 0
x[S1,C3,P1,9] 0
x[S1,C3,P1,10] 0
x[S1,C3,P1,11] 0
x[S1,C3,P1,12] 0
x[S1,C3,P1,13] 0
x[S1,C3,P1,14] 0
x[S1,C3,P1,15] 0
x[S1,C3,P1,16] 0
x[S1,C3,P1,17] 0
x[S1,C3,P1,18] 0
x[S1,C3,P1,19] 0
x[S2,D1,P1,1] 0
x[S2,D1,P1,2] 0
x[S2,D1,P1,3] 0
x[S2,D1,P1,4] 0
x[S2,D1,P1,5] 0
x[S2,D1,P1,6] 0
x[S2,D1,P1,7] 0
x[S2,D1,P1,8] 0
x[S2,D1,P1,9] 0
x[S2,D1,P1,10] 0
x[S2,D1,P1,11] 0
x[S2,D1,P1,12] 0
x[S2,D1,P1,13] 0
x[S2,D1,P1,14] 0
x[S2,D1,P1,15] 0
x[S2,D1,P1,16] 0
x[S2,D1,P1,17] 0
x[S2,D1,P1,18] 0
x[S2,D1,P1,19] 0
x[S2,D2,P1,1] 5.2256417350813038e+00
x[S2,D2,P1,2] 9.42399664859645
x[S2,D2,P1,3] 0
x[S2,D2,P1,4] 0
x[S2,D2,P1,5] 5.8833122930388946e+00
x[S2,D2,P1,6] 0
x[S2,D2,P1,7] 8.6567569947128558e+00
x[S2,D2,P1,8] 6.92222182348198
x[S2,D2,P1,9] 1.8199999999999363e+00
x[S2,D2,P1,10] 7.6356087399653152e+00
x[S2,D2,P1,11] 0
x[S2,D2,P1,12] 9.42399664859645
x[S2,D2,P1,13] 9.42399664859645
x[S2,D2,P1,14] 0
x[S2,D2,P1,15] 0
x[S2,D2,P1,16] 0
x[S2,D2,P1,17] 0
x[S2,D2,P1,18] 0
x[S2,D2,P1,19] 0
x[S2,C1,P1,1] 0
x[S2,C1,P1,2] 2.3793122317537382e-01
x[S2,C1,P1,3] 1.4823401101552836e+01
x[S2,C1,P1,4] 1.0993857453444171e+01
x[S2,C1,P1,5] 1.2035689575139585e-01
x[S2,C1,P1,6] 1.0844453326076302e+01
x[S2,C1,P1,7] 6.5780977496482249e+00
x[S2,C1,P1,8] 5.6200000000000916e+00
x[S2,C1,P1,9] 1.4230000000000064e+01
x[S2,C1,P1,10] 8.0284417435937385e+00
x[S2,C1,P1,11] 1.1351892353783597e+01
x[S2,C1,P1,12] 1.0142520056710111e+00
x[S2,C1,P1,13] 0
x[S2,C1,P1,14] 0
x[S2,C1,P1,15] 0
x[S2,C1,P1,16] 1.1117316147303232e+01
x[S2,C1,P1,17] 0
x[S2,C1,P1,18] 0
x[S2,C1,P1,19] 0
x[S2,C2,P1,1] 1.0824358264918697e+01
x[S2,C2,P1,2] 5.8655038242976625e+00
x[S2,C2,P1,3] 1.2265988984471656e+00
x[S2,C2,P1,4] 5.05614254655583
x[S2,C2,P1,5] 4.6963308112097089e+00
x[S2,C2,P1,6] 8.1764574289020309e-01
x[S2,C2,P1,7] 0.00808070175436788
x[S2,C2,P1,8] 3.5077781765179292e+00
x[S2,C2,P1,9] 0
x[S2,C2,P1,10] 3.8594951644094672e-01
x[S2,C2,P1,11] 4.6981076462164042e+00
x[S2,C2,P1,12] 2.6175134573253811e-01
x[S2,C2,P1,13] 6.5720849960208589e+00
x[S2,C2,P1,14] 0
x[S2,C2,P1,15] 0
x[S2,C2,P1,16] 4.6185277824406512e-14
x[S2,C2,P1,17] 0
x[S2,C2,P1,18] 0
x[S2,C2,P1,19] 0
x[S2,C3,P1,1] 0
x[S2,C3,P1,2] 0
x[S2,C3,P1,3] 0
x[S2,C3,P1,4] 0
x[S2,C3,P1,5] 0
x[S2,C3,P1,6] 0
x[S2,C3,P1,7] 0
x[S2,C3,P1,8] 0
x[S2,C3,P1,9] 0
x[S2,C3,P1,10] 0
x[S2,C3,P1,11] 0
x[S2,C3,P1,12] 0
x[S2,C3,P1,13] 0
x[S2,C3,P1,14] 0
x[S2,C3,P1,15] 0
x[S2,C3,P1,16] 0
x[S2,C3,P1,17] 0
x[S2,C3,P1,18] 0
x[S2,C3,P1,19] 0
x[D1,D2,P1,1] 0
x[D1,D2,P1,2] 0
x[D1,D2,P1,3] 0
x[D1,D2,P1,4] 0
x[D1,D2,P1,5] 0
x[D1,D2,P1,6] 0
x[D1,D2,P1,7] 0
x[D1,D2,P1,8] 0
x[D1,D2,P1,9] 0
x[D1,D2,P1,10] 0
x[D1,D2,P1,11] 0
x[D1,D2,P1,12] 0
x[D1,D2,P1,13] 0
x[D1,D2,P1,14] 0
x[D1,D2,P1,15] 0
x[D1,D2,P1,16] 0
x[D1,D2,P1,17] 0
x[D1,D2,P1,18] 0
x[D1,D2,P1,19] 0
x[D1,C1,P1,1] 0
x[D1,C1,P1,2] 0
x[D1,C1,P1,3] 0
x[D1,C1,P1,4] 0
x[D1,C1,P1,5] 0
x[D1,C1,P1,6] 0
x[D1,C1,P1,7] 0
x[D1,C1,P1,8] 0
x[D1,C1,P1,9] 0
x[D1,C1,P1,10] 0
x[D1,C1,P1,11] 0
x[D1,C1,P1,12] 0
x[D1,C1,P1,13] 0
x[D1,C1,P1,14] 0
x[D1,C1,P1,15] 0
x[D1,C1,P1,16] 0
x[D1,C1,P1,17] 0
x[D1,C1,P1,18] 0
x[D1,C1,P1,19] 0
x[D1,C2,P1,1] 0
x[D1,C2,P1,2] 0
x[D1,C2,P1,3] 0
x[D1,C2,P1,4] 0
x[D1,C2,P1,5] 0
x[D1,C2,P1,6] 0
x[D1,C2,P1,7] 0
x[D1,C2,P1,8] 0
x[D1,C2,P1,9] 0
x[D1,C2,P1,10] 0
x[D1,C2,P1,11] 0
x[D1,C2,P1,12] 0
x[D1,C2,P1,13] 0
x[D1,C2,P1,14] 0
x[D1,C2,P1,15] 0
x[D1,C2,P1,16] 0
x[D1,C2,P1,17] 0
x[D1,C2,P1,18] 0
x[D1,C2,P1,19] 0
x[D1,C3,P1,1] 0
x[D1,C3,P1,2] 0
x[D1,C3,P1,3] 0
x[D1,C3,P1,4] 0
x[D1,C3,P1,5] 0
x[D1,C3,P1,6] 0
x[D1,C3,P1,7] 0
x[D1,C3,P1,8] 0
x[D1,C3,P1,9] 0
x[D1,C3,P1,10] 0
x[D1,C3,P1,11] 0
x[D1,C3,P1,12] 0
x[D1,C3,P1,13] 0
x[D1,C3,P1,14] 0
x[D1,C3,P1,15] 0
x[D1,C3,P1,16] 0
x[D1,C3,P1,17] 0
x[D1,C3,P1,18] 0
x[D1,C3,P1,19] 0
x[D2,D1,P1,1] 0
x[D2,D1,P1,2] 0
x[D2,D1,P1,3] 0
x[D2,D1,P1,4] 0
x[D2,D1,P1,5] 0
x[D2,D1,P1,6] 0
x[D2,D1,P1,7] 0
x[D2,D1,P1,8] 0
x[D2,D1,P1,9] 0
x[D2,D1,P1,10] 0
x[D2,D1,P1,11] 0
x[D2,D1,P1,12] 0
x[D2,D1,P1,13] 0
x[D2,D1,P1,14] 0
x[D2,D1,P1,15] 0
x[D2,D1,P1,16] 0
x[D2,D1,P1,17] 0
x[D2,D1,P1,18] 0
x[D2,D1,P1,19] 0
x[D2,C1,P1,1] 0
x[D2,C1,P1,2] 0
x[D2,C1,P1,3] 0
x[D2,C1,P1,4] 0
x[D2,C1,P1,5] 0
x[D2,C1,P1,6] 0
x[D2,C1,P1,7] 0
x[D2,C1,P1,8] 0
x[D2,C1,P1,9] 0
x[D2,C1,P1,10] 0
x[D2,C1,P1,11] 0
x[D2,C1,P1,12] 0
x[D2,C1,P1,13] 0
x[D2,C1,P1,14] 0
x[D2,C1,P1,15] 0
x[D2,C1,P1,16] 0
x[D2,C1,P1,17] 0
x[D2,C1,P1,18] 0
x[D2,C1,P1,19] 0
x[D2,C2,P1,1] 0
x[D2,C2,P1,2] 0
x[D2,C2,P1,3] 4.1127104425018812e+00
x[D2,C2,P1,4] 5.1401175071812792e+00
x[D2,C2,P1,5] 4.1537727016033612e+00
x[D2,C2,P1,6] 3.5681926039420775e-01
x[D2,C2,P1,7] 0
x[D2,C2,P1,8] 5.5845175657696577e+00
x[D2,C2,P1,9] 1.5408515424820825e-02
x[D2,C2,P1,10] 5.5845175657696577e+00
x[D2,C2,P1,11] 5.5845175657696577e+00
x[D2,C2,P1,12] 0
x[D2,C2,P1,13] 1.9172864045831397e+00
x[D2,C2,P1,14] 0
x[D2,C2,P1,15] 0
x[D2,C2,P1,16] 0
x[D2,C2,P1,17] 0
x[D2,C2,P1,18] 0
x[D2,C2,P1,19] 0
x[D2,C3,P1,1] 0
x[D2,C3,P1,2] 7.7904307476280188e-01
x[D2,C3,P1,3] 1.0169719144529916e+01
x[D2,C3,P1,4] 9.3482292189089389e+00
x[D2,C3,P1,5] 3.0904006614417479e+00
x[D2,C3,P1,6] 6.2069235676477970e+00
x[D2,C3,P1,7] 3.2818714140210021e+00
x[D2,C3,P1,8] 1.4604858706642692e-02
x[D2,C3,P1,9] 4.0199999999999276e+00
x[D2,C3,P1,10] 1.3520514422577984e-01
x[D2,C3,P1,11] 1.3474052160245517e+01
x[D2,C3,P1,12] 1.0971817798134714e+01
x[D2,C3,P1,13] 3.4889248973939586e+00
x[D2,C3,P1,14] 8.9000000000002322e-01
x[D2,C3,P1,15] 1.0063280041329906e+01
x[D2,C3,P1,16] 6.7301598760102976e+00
x[D2,C3,P1,17] 1.7576814264101159e-01
x[D2,C3,P1,18] 0
x[D2,C3,P1,19] 0
r[S1,P1,1] 1
r[S1,P1,2] 1
r[S1,P1,3] 0
r[S1,P1,4] 0
r[S1,P1,5] 0
r[S1,P1,6] 0
r[S1,P1,7] 0
r[S1,P1,8] 1
r[S1,P1,9] 1
r[S1,P1,10] 0
r[S1,P1,11] 0
r[S1,P1,12] 0
r[S1,P1,13] 0
r[S1,P1,14] 0
r[S1,P1,15] 0
r[S1,P1,16] 0
r[S1,P1,17] 0
r[S1,P1,18] 0
r[S1,P1,19] 0
r[S2,P1,1] 1
r[S2,P1,2] 1
r[S2,P1,3] 1
r[S2,P1,4] 1
r[S2,P1,5] 1
r[S2,P1,6] 1
r[S2,P1,7] 1
r[S2,P1,8] 1
r[S2,P1,9] 1
r[S2,P1,10] 1
r[S2,P1,11] 1
r[S2,P1,12] 1
r[S2,P1,13] 1
r[S2,P1,14] 0
r[S2,P1,15] 0
r[S2,P1,16] 1
r[S2,P1,17] 0
r[S2,P1,18] 0
r[S2,P1,19] 0
l[S1,D1] 0
l[S1,D2] 1
l[S1,C1] 0
l[S1,C2] 0
l[S1,C3] 0
l[S2,D1] 0
l[S2,D2] 1
l[S2,C1] 1
l[S2,C2] 1
l[S2,C3] 0
l[D1,D2] 0
l[D1,C1] 0
l[D1,C2] 0
l[D1,C3] 0
l[D2,D1] 0
l[D2,C1] 0
l[D2,C2] 1
l[D2,C3] 1
k[S1,D1,1] 0
k[S1,D1,2] 0
k[S1,D1,3] 0
k[S1,D1,4] 0
k[S1,D1,5] 0
k[S1,D1,6] 0
k[S1,D1,7] 0
k[S1,D1,8] 0
k[S1,D1,9] 0
k[S1,D1,10] 0
k[S1,D1,11] 0
k[S1,D1,12] 0
k[S1,D1,13] 0
k[S1,D1,14] 0
k[S1,D1,15] 0
k[S1,D1,16] 0
k[S1,D1,17] 0
k[S1,D1,18] 0
k[S1,D1,19] 0
k[S1,D2,1] 4.7960444559860154e+00
k[S1,D2,2] 4.7960444559860154e+00
k[S1,D2,3] 0
k[S1,D2,4] 0
k[S1,D2,5] 0
k[S1,D2,6] 0
k[S1,D2,7] 0
k[S1,D2,8] 4.5759722222222212e+00
k[S1,D2,9] 4.5759722222222212e+00
k[S1,D2,10] 0
k[S1,D2,11] 0
k[S1,D2,12] 0
k[S1,D2,13] 0
k[S1,D2,14] 0
k[S1,D2,15] 0
k[S1,D2,16] 0
k[S1,D2,17] 0
k[S1,D2,18] 0
k[S1,D2,19] 0
k[S1,C1,1] 0
k[S1,C1,2] 0
k[S1,C1,3] 0
k[S1,C1,4] 0
k[S1,C1,5] 0
k[S1,C1,6] 0
k[S1,C1,7] 0
k[S1,C1,8] 0
k[S1,C1,9] 0
k[S1,C1,10] 0
k[S1,C1,11] 0
k[S1,C1,12] 0
k[S1,C1,13] 0
k[S1,C1,14] 0
k[S1,C1,15] 0
k[S1,C1,16] 0
k[S1,C1,17] 0
k[S1,C1,18] 0
k[S1,C1,19] 0
k[S1,C2,1] 0
k[S1,C2,2] 0
k[S1,C2,3] 0
k[S1,C2,4] 0
k[S1,C2,5] 0
k[S1,C2,6] 0
k[S1,C2,7] 0
k[S1,C2,8] 0
k[S1,C2,9] 0
k[S1,C2,10] 0
k[S1,C2,11] 0
k[S1,C2,12] 0
k[S1,C2,13] 0
k[S1,C2,14] 0
k[S1,C2,15] 0
k[S1,C2,16] 0
k[S1,C2,17] 0
k[S1,C2,18] 0
k[S1,C2,19] 0
k[S1,C3,1] 0
k[S1,C3,2] 0
k[S1,C3,3] 0
k[S1,C3,4] 0
k[S1,C3,5] 0
k[S1,C3,6] 0
k[S1,C3,7] 0
k[S1,C3,8] 0
k[S1,C3,9] 0
k[S1,C3,10] 0
k[S1,C3,11] 0
k[S1,C3,12] 0
k[S1,C3,13] 0
k[S1,C3,14] 0
k[S1,C3,15] 0
k[S1,C3,16] 0
k[S1,C3,17] 0
k[S1,C3,18] 0
k[S1,C3,19] 0
k[S2,D1,1] 0
k[S2,D1,2] 0
k[S2,D1,3] 0
k[S2,D1,4] 0
k[S2,D1,5] 0
k[S2,D1,6] 0
k[S2,D1,7] 0
k[S2,D1,8] 0
k[S2,D1,9] 0
k[S2,D1,10] 0
k[S2,D1,11] 0
k[S2,D1,12] 0
k[S2,D1,13] 0
k[S2,D1,14] 0
k[S2,D1,15] 0
k[S2,D1,16] 0
k[S2,D1,17] 0
k[S2,D1,18] 0
k[S2,D1,19] 0
k[S2,D2,1] 1.7055913996445919e+00
k[S2,D2,2] 3.0758877950280077e+00
k[S2,D2,3] 0
k[S2,D2,4] 0
k[S2,D2,5] 1.9202477623113057e+00
k[S2,D2,6] 0
k[S2,D2,7] 2.8254692968854456e+00
k[S2,D2,8] 2.2593362896087013e+00
k[S2,D2,9] 0.594027777777757
k[S2,D2,10] 2.4921778526275680e+00
k[S2,D2,11] 0
k[S2,D2,12] 3.0758877950280077e+00
k[S2,D2,13] 3.0758877950280077e+00
k[S2,D2,14] 0
k[S2,D2,15] 0
k[S2,D2,16] 0
k[S2,D2,17] 0
k[S2,D2,18] 0
k[S2,D2,19] 0
k[S2,C1,1] 0
k[S2,C1,2] 0.0776581075641845
k[S2,C1,3] 4.8381934150901609e+00
k[S2,C1,4] 3.5882729188324722e+00
k[S2,C1,5] 3.9283153474413919e-02
k[S2,C1,6] 3.5395090717054591e+00
k[S2,C1,7] 2.1470180155101843e+00
k[S2,C1,8] 1.8343055555555852e+00
k[S2,C1,9] 4.6445138888889090e+00
k[S2,C1,10] 2.6203941802007336e+00
k[S2,C1,11] 3.7051315321377012e+00
k[S2,C1,12] 3.3104058518428831e-01
k[S2,C1,13] 0
k[S2,C1,14] 0
k[S2,C1,15] 0
k[S2,C1,16] 3.6285684647448040e+00
k[S2,C1,17] 0
k[S2,C1,18] 0
k[S2,C1,19] 0
k[S2,C2,1] 3.5329502670220743e+00
k[S2,C2,2] 1.9144352759860424e+00
k[S2,C2,3] 4.0034825157650539e-01
k[S2,C2,4] 1.6502687478341944e+00
k[S2,C2,5] 1.5328301953253909e+00
k[S2,C2,6] 2.6687048552666348e-01
k[S2,C2,7] 2.6374512670506271e-03
k[S2,C2,8] 1.1448998215023796e+00
k[S2,C2,9] 0
k[S2,C2,10] 1.2596963383836454e-01
k[S2,C2,11] 1.5334101345289650e+00
k[S2,C2,12] 8.5432730898814507e-02
k[S2,C2,13] 2.1450555195345857e+00
k[S2,C2,14] 0
k[S2,C2,15] 0
k[S2,C2,16] 1.5074361512132680e-14
k[S2,C2,17] 0
k[S2,C2,18] 0
k[S2,C2,19] 0
k[S2,C3,1] 0
k[S2,C3,2] 0
k[S2,C3,3] 0
k[S2,C3,4] 0
k[S2,C3,5] 0
k[S2,C3,6] 0
k[S2,C3,7] 0
k[S2,C3,8] 0
k[S2,C3,9] 0
k[S2,C3,10] 0
k[S2,C3,11] 0
k[S2,C3,12] 0
k[S2,C3,13] 0
k[S2,C3,14] 0
k[S2,C3,15] 0
k[S2,C3,16] 0
k[S2,C3,17] 0
k[S2,C3,18] 0
k[S2,C3,19] 0
k[D1,D2,1] 0
k[D1,D2,2] 0
k[D1,D2,3] 0
k[D1,D2,4] 0
k[D1,D2,5] 0
k[D1,D2,6] 0
k[D1,D2,7] 0
k[D1,D2,8] 0
k[D1,D2,9] 0
k[D1,D2,10] 0
k[D1,D2,11] 0
k[D1,D2,12] 0
k[D1,D2,13] 0
k[D1,D2,14] 0
k[D1,D2,15] 0
k[D1,D2,16] 0
k[D1,D2,17] 0
k[D1,D2,18] 0
k[D1,D2,19] 0
k[D1,C1,1] 0
k[D1,C1,2] 0
k[D1,C1,3] 0
k[D1,C1,4] 0
k[D1,C1,5] 0
k[D1,C1,6] 0
k[D1,C1,7] 0
k[D1,C1,8] 0
k[D1,C1,9] 0
k[D1,C1,10] 0
k[D1,C1,11] 0
k[D1,C1,12] 0
k[D1,C1,13] 0
k[D1,C1,14] 0
k[D1,C1,15] 0
k[D1,C1,16] 0
k[D1,C1,17] 0
k[D1,C1,18] 0
k[D1,C1,19] 0
k[D1,C2,1] 0
k[D1,C2,2] 0
k[D1,C2,3] 0
k[D1,C2,4] 0
k[D1,C2,5] 0
k[D1,C2,6] 0
k[D1,C2,7] 0
k[D1,C2,8] 0
k[D1,C2,9] 0
k[D1,C2,10] 0
k[D1,C2,11] 0
k[D1,C2,12] 0
k[D1,C2,13] 0
k[D1,C2,14] 0
k[D1,C2,15] 0
k[D1,C2,16] 0
k[D1,C2,17] 0
k[D1,C2,18] 0
k[D1,C2,19] 0
k[D1,C3,1] 0
k[D1,C3,2] 0
k[D1,C3,3] 0
k[D1,C3,4] 0
k[D1,C3,5] 0
k[D1,C3,6] 0
k[D1,C3,7] 0
k[D1,C3,8] 0
k[D1,C3,9] 0
k[D1,C3,10] 0
k[D1,C3,11] 0
k[D1,C3,12] 0
k[D1,C3,13] 0
k[D1,C3,14] 0
k[D1,C3,15] 0
k[D1,C3,16] 0
k[D1,C3,17] 0
k[D1,C3,18] 0
k[D1,C3,19] 0
k[D2,D1,1] 0
k[D2,D1,2] 0
k[D2,D1,3] 0
k[D2,D1,4] 0
k[D2,D1,5] 0
k[D2,D1,6] 0
k[D2,D1,7] 0
k[D2,D1,8] 0
k[D2,D1,9] 0
k[D2,D1,10] 0
k[D2,D1,11] 0
k[D2,D1,12] 0
k[D2,D1,13] 0
k[D2,D1,14] 0
k[D2,D1,15] 0
k[D2,D1,16] 0
k[D2,D1,17] 0
k[D2,D1,18] 0
k[D2,D1,19] 0
k[D2,C1,1] 0
k[D2,C1,2] 0
k[D2,C1,3] 0
k[D2,C1,4] 0
k[D2,C1,5] 0
k[D2,C1,6] 0
k[D2,C1,7] 0
k[D2,C1,8] 0
k[D2,C1,9] 0
k[D2,C1,10] 0
k[D2,C1,11] 0
k[D2,C1,12] 0
k[D2,C1,13] 0
k[D2,C1,14] 0
k[D2,C1,15] 0
k[D2,C1,16] 0
k[D2,C1,17] 0
k[D2,C1,18] 0
k[D2,C1,19] 0
k[D2,C2,1] 0
k[D2,C2,2] 0
k[D2,C2,3] 1.3423429916499194e+00
k[D2,C2,4] 1.6776772419272228e+00
k[D2,C2,5] 1.3557452567733190e+00
k[D2,C2,6] 1.1646184193422057e-01
k[D2,C2,7] 0
k[D2,C2,8] 1.8227244832720408e+00
k[D2,C2,9] 5.0291682289345741e-03
k[D2,C2,10] 1.8227244832720408e+00
k[D2,C2,11] 1.8227244832720408e+00
k[D2,C2,12] 0
k[D2,C2,13] 6.2578097927366361e-01
k[D2,C2,14] 0
k[D2,C2,15] 0
k[D2,C2,16] 0
k[D2,C2,17] 0
k[D2,C2,18] 0
k[D2,C2,19] 0
k[D2,C3,1] 0
k[D2,C3,2] 2.5427100356841448e-01
k[D2,C3,3] 3.31928333189518
k[D2,C3,4] 3.0511581478383336e+00
k[D2,C3,5] 1.0086724381094592e+00
k[D2,C3,6] 2.0258708866628221e+00
k[D2,C3,7] 1.0711663642985214e+00
k[D2,C3,8] 4.7668636056403223e-03
k[D2,C3,9] 1.3120833333333095e+00
k[D2,C3,10] 4.4129456795914249e-02
k[D2,C3,11] 4.3977809134134667e+00
k[D2,C3,12] 3.5810794202245240e+00
k[D2,C3,13] 1.1387463206771946e+00
k[D2,C3,14] 2.9048611111111866e-01
k[D2,C3,15] 3.2845427912673992e+00
k[D2,C3,16] 2.1966494039755831e+00
k[D2,C3,17] 5.7368768778663495e-02
k[D2,C3,18] 0
k[D2,C3,19] 0
v[S1,D1] 0
v[S1,D2] 4.7960444559860154e+00
v[S1,C1] 0
v[S1,C2] 0
v[S1,C3] 0
v[S2,D1] 0
v[S2,D2] 3.0758877950280077e+00
v[S2,C1] 4.8381934150901609e+00
v[S2,C2] 3.5329502670220743e+00
v[S2,C3] 0
v[D1,D2] 0
v[D1,C1] 0
v[D1,C2] 0
v[D1,C3] 0
v[D2,D1] 0
v[D2,C1] 0
v[D2,C2] 1.8227244832720408e+00
v[D2,C3] 4.3977809134134667e+00
